n_res = 4;
rc = [ 0, 0, 0, 0 ];
n_tasks = 30;
d = [ 3, 5, 6, 1, 5, 1, 9, 3, 3, 9, 2, 4, 6, 8, 5, 8, 6, 7, 8, 10, 1, 10, 2, 9, 4, 8, 10, 2, 9, 4 ];
rr = [| 0, 0, 0, 0, 0, 0, 0, 0, 0, 0, 0, 0, 0, 0, 0, 0, 0, 0, 0, 0, 0, 0, 0, 0, 0, 0, 0, 0, 0, 0
      | 0, 0, 0, 0, 0, 0, 0, 0, 0, 0, 0, 0, 0, 0, 0, 0, 0, 0, 0, 0, 0, 0, 0, 0, 0, 0, 0, 0, 0, 0
      | 0, 0, 0, 0, 0, 0, 0, 0, 0, 0, 0, 0, 0, 0, 0, 0, 0, 0, 0, 0, 0, 0, 0, 0, 0, 0, 0, 0, 0, 0
      | 0, 0, 0, 0, 0, 0, 0, 0, 0, 0, 0, 0, 0, 0, 0, 0, 0, 0, 0, 0, 0, 0, 0, 0, 0, 0, 0, 0, 0, 0 |];
suc = [ { 4, 9, 15 },
       { 5, 6, 8 },
       { 4, 9, 19 },
       { 6, 12, 22 },
       { 7, 10, 15 },
       { 10, 13, 23 },
       { 11, 13, 30 },
       { 12, 20, 22 },
       { 13, 17, 18 },
       { 11, 18 },
       { 17, 20, 25 },
       { 23, 26, 27 },
       { 14 },
       { 21, 24 },
       { 16, 18, 19 },
       { 20, 21, 30 },
       { 24, 29 },
       { 30 },
       { 21, 22, 26 },
       { 24, 27 },
       { 25, 28 },
       { 23, 25, 28 },
       { 29 },
       { 26 },
       { 27 },
       { 28 },
       { 29 },
       {  },
       {  },
       {  } ];
